NAME: tsp30_20
COMMENT: 30-tsp problem (Padberg/Rinaldi)
TYPE: TSP
DIMENSION: 30
EDGE_WEIGHT_TYPE : EUC_2D
NODE_COORD_SECTION
1 38 13
2 24 28
3 25 17
4 13 12
5 4 21
6 38 30
7 8 12
8 24 9
9 21 5
10 13 19
11 39 21
12 0 15
13 9 6
14 17 10
15 33 6
16 6 34
17 33 2
18 5 34
19 30 35
20 27 27
21 35 31
22 32 39
23 26 28
24 20 18
25 39 36
26 4 14
27 8 26
28 39 5
29 27 10
30 13 34
